02_FORMAL/smt/RIINA/Compliance/PCIDSSCompliance.smt2
; Copyright (c) 2026 The RIINA Authors. All rights reserved.
; Copyright (c) 2026 The RIINA Authors.
; Auto-generated from 02_FORMAL/coq/compliance/PCIDSSCompliance.v (37 assertions)
; Generated by scripts/generate-full-stack.py
; Module: PCIDSSCompliance

(set-logic ALL)
(set-option :produce-models true)

; CHDType (matches Coq: Inductive CHDType)
(declare-datatypes ((CHDType 0)) (((PAN) (CVV) (PIN) (Expiry) (CardholderName))))

; EncState (matches Coq: Inductive EncState)
(declare-datatypes ((EncState 0)) (((Plain) (AES128) (AES256) (Tokenized))))

; PANDisplay (matches Coq: Inductive PANDisplay)
(declare-datatypes ((PANDisplay 0)) (((FullPAN) (MaskedPAN) (TokenizedPAN))))

; AccessLevel (matches Coq: Inductive AccessLevel)
(declare-datatypes ((AccessLevel 0)) (((NoAccess) (ReadOnly) (ReadWrite) (Admin))))

; TLSVersion (matches Coq: Inductive TLSVersion)
(declare-datatypes ((TLSVersion 0)) (((TLS10) (TLS11) (TLS12) (TLS13))))

; DeletionState (matches Coq: Inductive DeletionState)
(declare-datatypes ((DeletionState 0)) (((NotDeleted) (MarkedForDeletion) (Overwritten) (SecurelyDeleted))))

; CHDRecord (matches Coq: Record CHDRecord)
(declare-datatypes ((CHDRecord 0))
  (((mk-chd_record (chd_type CHDType) (chd_value Int) (chd_encryption EncState) (chd_display_format PANDisplay)))))

; KeyState (matches Coq: Record KeyState)
(declare-datatypes ((KeyState 0))
  (((mk-key_state (key_id Int) (key_creation_time Int) (key_rotation_period Int) (key_protected Bool)))))

; PCIAudit (matches Coq: Record PCIAudit)
(declare-datatypes ((PCIAudit 0))
  (((mk-pci_audit (pci_timestamp Int) (pci_user Int) (pci_action Int) (pci_chd_accessed CHDType) (pci_success Bool) (pci_hash Int)))))

; TokenVault (matches Coq: Record TokenVault)
(declare-datatypes ((TokenVault 0))
  (((mk-token_vault (vault_tokens list) (vault_key KeyState) (vault_isolated Bool)))))

; PCISystem (matches Coq: Record PCISystem)
(declare-datatypes ((PCISystem 0))
  (((mk-pci_system (pci_chd_records list) (pci_audit_log list) (pci_keys list) (pci_vault TokenVault)))))

; User (matches Coq: Record User)
(declare-datatypes ((User 0))
  (((mk-user (user_id Int) (user_access_level AccessLevel) (user_mfa_enabled Bool) (user_need_to_know Bool)))))

; Transmission (matches Coq: Record Transmission)
(declare-datatypes ((Transmission 0))
  (((mk-transmission (trans_tls_version TLSVersion) (trans_encrypted Bool) (trans_chd_type CHDType)))))

; RetentionPolicy (matches Coq: Record RetentionPolicy)
(declare-datatypes ((RetentionPolicy 0))
  (((mk-retention_policy (retention_max_days Int) (retention_auto_delete Bool)))))

; NetworkZone (matches Coq: Record NetworkZone)
(declare-datatypes ((NetworkZone 0))
  (((mk-network_zone (zone_id Int) (zone_is_cde Bool) (zone_isolated Bool) (zone_firewall_protected Bool)))))

; can_store (matches Coq: Definition can_store)
(define-fun can_store ((chd CHDType)) Bool
  true)

; pci_compliant_encryption (matches Coq: Definition pci_compliant_encryption)
(define-fun pci_compliant_encryption ((enc EncState) (chd CHDType)) Bool
  true)

; display_compliant (matches Coq: Definition display_compliant)
(define-fun display_compliant ((disp PANDisplay)) Bool
  true)

; key_needs_rotation (matches Coq: Definition key_needs_rotation)
(define-fun key_needs_rotation ((k KeyState) (current_time Int)) Bool
  Nat)

; grant_chd_access (matches Coq: Definition grant_chd_access)
(define-fun grant_chd_access ((u User)) Bool
  true)

; chd_record_compliant (matches Coq: Definition chd_record_compliant)
(define-fun chd_record_compliant ((rec CHDRecord)) Bool
  true)

; create_audit_entry (matches Coq: Definition create_audit_entry)
(define-fun create_audit_entry ((chd CHDType) (succ Bool) (prev_hash Int)) PCIAudit
  true)

; tls_compliant (matches Coq: Definition tls_compliant)
(define-fun tls_compliant ((v TLSVersion)) Bool
  true)

; transmission_compliant (matches Coq: Definition transmission_compliant)
(define-fun transmission_compliant ((t Transmission)) Bool
  true)

; data_past_retention (matches Coq: Definition data_past_retention)
(define-fun data_past_retention () Bool Nat)

; deletion_secure (matches Coq: Definition deletion_secure)
(define-fun deletion_secure ((ds DeletionState)) Bool
  true)

; deletion_unrecoverable (matches Coq: Definition deletion_unrecoverable)
(define-fun deletion_unrecoverable ((ds DeletionState)) Bool
  true)

; zone_compliant (matches Coq: Definition zone_compliant)
(define-fun zone_compliant ((z NetworkZone)) Bool
  true)

; system_scope_isolated (matches Coq: Definition system_scope_isolated)
(define-fun system_scope_isolated ((sys PCISystem)) Bool
  true)

; users_unique_ids (matches Coq: Definition users_unique_ids)
(define-fun users_unique_ids () Bool true)

; COMPLY_002_01_pan_masking (matches Coq: Theorem COMPLY_002_01_pan_masking)
(assert (forall ((disp PANDisplay)) (=> (= disp FullPAN) (= (display_compliant disp) false)))) ; COMPLY_002_01_pan_masking

; COMPLY_002_01_pan_masking_valid (matches Coq: Theorem COMPLY_002_01_pan_masking_valid)
(assert (and (= (display_compliant MaskedPAN) true) (= (display_compliant TokenizedPAN) true))) ; COMPLY_002_01_pan_masking_valid

; COMPLY_002_02_pan_encryption (matches Coq: Theorem COMPLY_002_02_pan_encryption)
(assert (= true true)) ; COMPLY_002_02_pan_encryption [untranslatable]

; COMPLY_002_02_pan_plain_forbidden (matches Coq: Theorem COMPLY_002_02_pan_plain_forbidden)
(assert (= (pci_compliant_encryption Plain PAN) false)) ; COMPLY_002_02_pan_plain_forbidden

; COMPLY_002_02_pan_aes128_insufficient (matches Coq: Theorem COMPLY_002_02_pan_aes128_insufficient)
(assert (= (pci_compliant_encryption AES128 PAN) false)) ; COMPLY_002_02_pan_aes128_insufficient

; COMPLY_002_03_cvv_never_stored (matches Coq: Theorem COMPLY_002_03_cvv_never_stored)
(assert (= (can_store CVV) false)) ; COMPLY_002_03_cvv_never_stored

; COMPLY_002_03_cvv_no_compliant_encryption (matches Coq: Theorem COMPLY_002_03_cvv_no_compliant_encryption)
(assert (forall ((enc EncState)) (= (pci_compliant_encryption enc CVV) false))) ; COMPLY_002_03_cvv_no_compliant_encryption

; COMPLY_002_04_pin_never_stored (matches Coq: Theorem COMPLY_002_04_pin_never_stored)
(assert (= (can_store PIN) false)) ; COMPLY_002_04_pin_never_stored

; COMPLY_002_04_pin_no_compliant_encryption (matches Coq: Theorem COMPLY_002_04_pin_no_compliant_encryption)
(assert (forall ((enc EncState)) (= (pci_compliant_encryption enc PIN) false))) ; COMPLY_002_04_pin_no_compliant_encryption

; COMPLY_002_05_key_rotation_detection (matches Coq: Theorem COMPLY_002_05_key_rotation_detection)
(assert (= true true)) ; COMPLY_002_05_key_rotation_detection [untranslatable]

; COMPLY_002_05_key_no_rotation_needed (matches Coq: Theorem COMPLY_002_05_key_no_rotation_needed)
(assert (= true true)) ; COMPLY_002_05_key_no_rotation_needed [untranslatable]

; COMPLY_002_06_access_requires_need_to_know (matches Coq: Theorem COMPLY_002_06_access_requires_need_to_know)
(assert (forall ((u User)) (=> (= (user_need_to_know u) false) (= (grant_chd_access u) false)))) ; COMPLY_002_06_access_requires_need_to_know

; COMPLY_002_06_no_access_level_denied (matches Coq: Theorem COMPLY_002_06_no_access_level_denied)
(assert (forall ((u User)) (=> (= (user_access_level u) NoAccess) (= (grant_chd_access u) false)))) ; COMPLY_002_06_no_access_level_denied

; COMPLY_002_07_unique_ids_singleton (matches Coq: Theorem COMPLY_002_07_unique_ids_singleton)
(assert (= true true)) ; COMPLY_002_07_unique_ids_singleton [untranslatable]

; COMPLY_002_07_unique_ids_empty (matches Coq: Theorem COMPLY_002_07_unique_ids_empty)
(assert (= true true)) ; COMPLY_002_07_unique_ids_empty [untranslatable]

; COMPLY_002_08_mfa_required (matches Coq: Theorem COMPLY_002_08_mfa_required)
(assert (= true true)) ; COMPLY_002_08_mfa_required [untranslatable]

; COMPLY_002_08_access_granted_implies_mfa (matches Coq: Theorem COMPLY_002_08_access_granted_implies_mfa)
(assert (forall ((u User)) (=> (= (grant_chd_access u) true) (= (user_mfa_enabled u) true)))) ; COMPLY_002_08_access_granted_implies_mfa

; COMPLY_002_09_audit_entry_has_timestamp (matches Coq: Theorem COMPLY_002_09_audit_entry_has_timestamp)
(assert (= true true)) ; COMPLY_002_09_audit_entry_has_timestamp [untranslatable]

; COMPLY_002_09_audit_entry_has_user (matches Coq: Theorem COMPLY_002_09_audit_entry_has_user)
(assert (= true true)) ; COMPLY_002_09_audit_entry_has_user [untranslatable]

; COMPLY_002_09_audit_entry_has_action (matches Coq: Theorem COMPLY_002_09_audit_entry_has_action)
(assert (= true true)) ; COMPLY_002_09_audit_entry_has_action [untranslatable]

; COMPLY_002_10_audit_has_hash (matches Coq: Theorem COMPLY_002_10_audit_has_hash)
(assert (= true true)) ; COMPLY_002_10_audit_has_hash [untranslatable]

; COMPLY_002_10_empty_log_valid (matches Coq: Theorem COMPLY_002_10_empty_log_valid)
(assert (= true true)) ; COMPLY_002_10_empty_log_valid [untranslatable]

; COMPLY_002_11_tls12_compliant (matches Coq: Theorem COMPLY_002_11_tls12_compliant)
(assert (= (tls_compliant TLS12) true)) ; COMPLY_002_11_tls12_compliant

; COMPLY_002_11_tls13_compliant (matches Coq: Theorem COMPLY_002_11_tls13_compliant)
(assert (= (tls_compliant TLS13) true)) ; COMPLY_002_11_tls13_compliant

; COMPLY_002_11_old_tls_non_compliant (matches Coq: Theorem COMPLY_002_11_old_tls_non_compliant)
(assert (and (= (tls_compliant TLS10) false) (= (tls_compliant TLS11) false))) ; COMPLY_002_11_old_tls_non_compliant

; COMPLY_002_11_transmission_requires_encryption (matches Coq: Theorem COMPLY_002_11_transmission_requires_encryption)
(assert (forall ((t Transmission)) (=> (= (transmission_compliant t) true) (= (trans_encrypted t) true)))) ; COMPLY_002_11_transmission_requires_encryption

; COMPLY_002_12_token_no_key_no_pan (matches Coq: Theorem COMPLY_002_12_token_no_key_no_pan)
(assert (= true true)) ; COMPLY_002_12_token_no_key_no_pan [untranslatable]

; COMPLY_002_12_tokenization_irreversible_without_key (matches Coq: Theorem COMPLY_002_12_tokenization_irreversible_without_key)
(assert (= true true)) ; COMPLY_002_12_tokenization_irreversible_without_key [untranslatable]

; COMPLY_002_13_past_retention_detected (matches Coq: Theorem COMPLY_002_13_past_retention_detected)
(assert (= true true)) ; COMPLY_002_13_past_retention_detected [untranslatable]

; COMPLY_002_13_within_retention_ok (matches Coq: Theorem COMPLY_002_13_within_retention_ok)
(assert (= true true)) ; COMPLY_002_13_within_retention_ok [untranslatable]

; COMPLY_002_14_secure_deletion_unrecoverable (matches Coq: Theorem COMPLY_002_14_secure_deletion_unrecoverable)
(assert (forall ((ds DeletionState)) (=> (= (deletion_secure ds) true) (= (deletion_unrecoverable ds) true)))) ; COMPLY_002_14_secure_deletion_unrecoverable

; COMPLY_002_14_not_deleted_recoverable (matches Coq: Theorem COMPLY_002_14_not_deleted_recoverable)
(assert (= (deletion_unrecoverable NotDeleted) false)) ; COMPLY_002_14_not_deleted_recoverable

; COMPLY_002_14_marked_still_recoverable (matches Coq: Theorem COMPLY_002_14_marked_still_recoverable)
(assert (= (deletion_unrecoverable MarkedForDeletion) false)) ; COMPLY_002_14_marked_still_recoverable

; COMPLY_002_15_cde_requires_isolation (matches Coq: Theorem COMPLY_002_15_cde_requires_isolation)
(assert (forall ((z NetworkZone)) (=> (= (zone_is_cde z) true) (=> (= (zone_compliant z) true) (= (zone_isolated z) true))))) ; COMPLY_002_15_cde_requires_isolation

; COMPLY_002_15_cde_requires_firewall (matches Coq: Theorem COMPLY_002_15_cde_requires_firewall)
(assert (forall ((z NetworkZone)) (=> (= (zone_is_cde z) true) (=> (= (zone_compliant z) true) (= (zone_firewall_protected z) true))))) ; COMPLY_002_15_cde_requires_firewall

; COMPLY_002_15_non_cde_always_compliant (matches Coq: Theorem COMPLY_002_15_non_cde_always_compliant)
(assert (forall ((z NetworkZone)) (=> (= (zone_is_cde z) false) (= (zone_compliant z) true)))) ; COMPLY_002_15_non_cde_always_compliant

; COMPLY_002_15_vault_isolation (matches Coq: Theorem COMPLY_002_15_vault_isolation)
(assert (= true true)) ; COMPLY_002_15_vault_isolation [untranslatable]

; Verify all assertions are satisfiable
(check-sat)
(exit)
